c Random generated cnf formula, satisfiable: true
p cnf 10 50
10 -4 7 0
2 -9 -5 0
-9 -10 -7 0
-3 -4 8 0
1 9 2 0
9 10 -8 0
-9 6 3 0
-5 9 3 0
6 9 7 0
-6 -3 1 0
3 10 -6 0
1 -6 9 0
-1 5 2 0
4 3 9 0
-1 -9 -2 0
-9 5 -2 0
9 7 -4 0
-7 1 4 0
7 -1 10 0
2 1 6 0
-8 1 -6 0
-1 9 -7 0
2 10 7 0
-4 2 10 0
1 2 -4 0
-10 -3 -4 0
-5 -1 -9 0
8 -7 4 0
-9 1 -4 0
2 7 -10 0
6 2 -10 0
5 2 7 0
-8 3 2 0
9 -7 -10 0
-2 10 8 0
9 3 2 0
4 3 1 0
10 8 -3 0
-7 -3 10 0
8 -10 -7 0
-7 8 -1 0
-6 -1 -3 0
4 2 8 0
8 10 -2 0
-1 6 -4 0
6 -7 -1 0
2 -3 4 0
5 -2 8 0
3 4 1 0
-3 4 -7 0
